44682.38,61.87,75.03
41490.91,66.63,80.8
49325.5,56.05,67.97
50515.66,54.73,66.37
43439.59,63.64,77.18
47939.56,57.67,69.93
52199.27,52.96,64.23
58542.33,47.22,57.27
44216.37,62.52,75.82
48787.64,56.67,68.72
40796.0,67.77,82.18
48877.47,56.56,68.59
45407.77,60.88,73.83
46821.06,59.05,71.6
51296.81,53.89,65.36
40471.33,68.31,82.84
43390.37,63.71,77.27
50029.0,55.26,67.01
47057.44,58.75,71.24
47546.42,58.15,70.51
